72 66828
53 14 29 59 13 3 25 11 5 31 22 65 46 63 50 62 72 69 18 21 33 6 43 37 4 66 58 70 23 61 7 49 71 36 19 15 67 28 1 17 39 55 9 48 40 64 26 47 16 32 44 20 68 41 60 56 10 30 52 57 51 42 45 12 35 27 8 2 38 34 24 54 
